p cnf 494 356
c p distribution  0.875 0.125
c p distribution  0.875 0.125
c p distribution  0.875 0.125
c p distribution  0.875 0.125
c p distribution  0.875 0.125
c p distribution  0.875 0.125
c p distribution  0.875 0.125
c p distribution  0.875 0.125
c p distribution  0.875 0.125
c p distribution  0.875 0.125
c p distribution  0.875 0.125
c p distribution  0.875 0.125
c p distribution  0.875 0.125
c p distribution  0.875 0.125
c p distribution  0.875 0.125
c p distribution  0.875 0.125
c p distribution  0.875 0.125
c p distribution  0.875 0.125
c p distribution  0.875 0.125
c p distribution  0.875 0.125
c p distribution  0.875 0.125
c p distribution  0.875 0.125
c p distribution  0.875 0.125
c p distribution  0.875 0.125
c p distribution  0.875 0.125
c p distribution  0.875 0.125
c p distribution  0.875 0.125
c p distribution  0.875 0.125
c p distribution  0.875 0.125
c p distribution  0.875 0.125
c p distribution  0.875 0.125
c p distribution  0.875 0.125
c p distribution  0.875 0.125
c p distribution  0.875 0.125
c p distribution  0.875 0.125
c p distribution  0.875 0.125
c p distribution  0.875 0.125
c p distribution  0.875 0.125
c p distribution  0.875 0.125
c p distribution  0.875 0.125
c p distribution  0.875 0.125
c p distribution  0.875 0.125
c p distribution  0.875 0.125
c p distribution  0.875 0.125
c p distribution  0.875 0.125
c p distribution  0.875 0.125
c p distribution  0.875 0.125
c p distribution  0.875 0.125
c p distribution  0.875 0.125
c p distribution  0.875 0.125
c p distribution  0.875 0.125
c p distribution  0.875 0.125
c p distribution  0.875 0.125
c p distribution  0.875 0.125
c p distribution  0.875 0.125
c p distribution  0.875 0.125
c p distribution  0.875 0.125
c p distribution  0.875 0.125
c p distribution  0.875 0.125
c p distribution  0.875 0.125
c p distribution  0.875 0.125
c p distribution  0.875 0.125
c p distribution  0.875 0.125
c p distribution  0.875 0.125
c p distribution  0.875 0.125
c p distribution  0.875 0.125
c p distribution  0.875 0.125
c p distribution  0.875 0.125
c p distribution  0.875 0.125
c p distribution  0.875 0.125
c p distribution  0.875 0.125
c p distribution  0.875 0.125
c p distribution  0.875 0.125
c p distribution  0.875 0.125
c p distribution  0.875 0.125
c p distribution  0.875 0.125
c p distribution  0.875 0.125
c p distribution  0.875 0.125
c p distribution  0.875 0.125
c p distribution  0.875 0.125
c p distribution  0.875 0.125
c p distribution  0.875 0.125
c p distribution  0.875 0.125
c p distribution  0.875 0.125
c p distribution  0.875 0.125
c p distribution  0.875 0.125
c p distribution  0.875 0.125
c p distribution  0.875 0.125
c p distribution  0.875 0.125
c p distribution  0.875 0.125
c p distribution  0.875 0.125
c p distribution  0.875 0.125
c p distribution  0.875 0.125
c p distribution  0.875 0.125
c p distribution  0.875 0.125
c p distribution  0.875 0.125
c p distribution  0.875 0.125
c p distribution  0.875 0.125
c p distribution  0.875 0.125
c p distribution  0.875 0.125
c p distribution  0.875 0.125
c p distribution  0.875 0.125
c p distribution  0.875 0.125
c p distribution  0.875 0.125
c p distribution  0.875 0.125
c p distribution  0.875 0.125
c p distribution  0.875 0.125
c p distribution  0.875 0.125
c p distribution  0.875 0.125
c p distribution  0.875 0.125
c p distribution  0.875 0.125
c p distribution  0.875 0.125
c p distribution  0.875 0.125
c p distribution  0.875 0.125
c p distribution  0.875 0.125
c p distribution  0.875 0.125
c p distribution  0.875 0.125
c p distribution  0.875 0.125
c p distribution  0.875 0.125
c p distribution  0.875 0.125
c p distribution  0.875 0.125
c p distribution  0.875 0.125
c p distribution  0.875 0.125
c p distribution  0.875 0.125
c p distribution  0.875 0.125
c p distribution  0.875 0.125
c p distribution  0.875 0.125
c p distribution  0.875 0.125
c p distribution  0.875 0.125
c p distribution  0.875 0.125
c p distribution  0.875 0.125
c p distribution  0.875 0.125
c p distribution  0.875 0.125
c p distribution  0.875 0.125
c p distribution  0.875 0.125
c p distribution  0.875 0.125
c p distribution  0.875 0.125
c p distribution  0.875 0.125
c p distribution  0.875 0.125
c p distribution  0.875 0.125
c p distribution  0.875 0.125
c p distribution  0.875 0.125
c p distribution  0.875 0.125
c p distribution  0.875 0.125
c p distribution  0.875 0.125
c p distribution  0.875 0.125
c p distribution  0.875 0.125
c p distribution  0.875 0.125
c p distribution  0.875 0.125
c p distribution  0.875 0.125
c p distribution  0.875 0.125
c p distribution  0.875 0.125
c p distribution  0.875 0.125
c p distribution  0.875 0.125
c p distribution  0.875 0.125
c p distribution  0.875 0.125
c p distribution  0.875 0.125
c p distribution  0.875 0.125
c p distribution  0.875 0.125
c p distribution  0.875 0.125
c p distribution  0.875 0.125
c p distribution  0.875 0.125
c p distribution  0.875 0.125
c p distribution  0.875 0.125
c p distribution  0.875 0.125
c p distribution  0.875 0.125
c p distribution  0.875 0.125
c p distribution  0.875 0.125
c p distribution  0.875 0.125
c p distribution  0.875 0.125
c p distribution  0.875 0.125
c p distribution  0.875 0.125
c p distribution  0.875 0.125
c p distribution  0.875 0.125
c p distribution  0.875 0.125
c p distribution  0.875 0.125
c p distribution  0.875 0.125
451 0
-381 0
413 -407 -1 0
407 -413 -1 0
447 -407 -3 0
407 -447 -3 0
421 -463 -5 0
463 -421 -5 0
379 -477 -7 0
477 -379 -7 0
439 -427 -9 0
427 -439 -9 0
420 -449 -11 0
449 -420 -11 0
442 -372 -13 0
372 -442 -13 0
465 -445 -15 0
445 -465 -15 0
483 -392 -17 0
392 -483 -17 0
375 -357 -19 0
357 -375 -19 0
388 -477 -21 0
477 -388 -21 0
402 -476 -23 0
476 -402 -23 0
393 -462 -25 0
462 -393 -25 0
445 -365 -27 0
365 -445 -27 0
489 -429 -29 0
429 -489 -29 0
357 -394 -31 0
394 -357 -31 0
399 -441 -33 0
441 -399 -33 0
396 -490 -35 0
490 -396 -35 0
414 -391 -37 0
391 -414 -37 0
433 -428 -39 0
428 -433 -39 0
386 -430 -41 0
430 -386 -41 0
476 -483 -43 0
483 -476 -43 0
474 -423 -45 0
423 -474 -45 0
445 -468 -47 0
468 -445 -47 0
387 -374 -49 0
374 -387 -49 0
423 -491 -51 0
491 -423 -51 0
357 -396 -53 0
396 -357 -53 0
417 -491 -55 0
491 -417 -55 0
439 -401 -57 0
401 -439 -57 0
454 -481 -59 0
481 -454 -59 0
492 -455 -61 0
455 -492 -61 0
421 -416 -63 0
416 -421 -63 0
465 -478 -65 0
478 -465 -65 0
429 -411 -67 0
411 -429 -67 0
473 -355 -69 0
355 -473 -69 0
428 -404 -71 0
404 -428 -71 0
446 -365 -73 0
365 -446 -73 0
488 -398 -75 0
398 -488 -75 0
444 -362 -77 0
362 -444 -77 0
450 -478 -79 0
478 -450 -79 0
493 -371 -81 0
371 -493 -81 0
406 -372 -83 0
372 -406 -83 0
465 -488 -85 0
488 -465 -85 0
457 -476 -87 0
476 -457 -87 0
488 -446 -89 0
446 -488 -89 0
465 -478 -91 0
478 -465 -91 0
357 -396 -93 0
396 -357 -93 0
488 -399 -95 0
399 -488 -95 0
425 -473 -97 0
473 -425 -97 0
425 -457 -99 0
457 -425 -99 0
389 -411 -101 0
411 -389 -101 0
463 -450 -103 0
450 -463 -103 0
414 -481 -105 0
481 -414 -105 0
363 -397 -107 0
397 -363 -107 0
385 -372 -109 0
372 -385 -109 0
375 -357 -111 0
357 -375 -111 0
474 -435 -113 0
435 -474 -113 0
478 -399 -115 0
399 -478 -115 0
484 -491 -117 0
491 -484 -117 0
419 -365 -119 0
365 -419 -119 0
419 -391 -121 0
391 -419 -121 0
412 -485 -123 0
485 -412 -123 0
464 -422 -125 0
422 -464 -125 0
445 -454 -127 0
454 -445 -127 0
366 -414 -129 0
414 -366 -129 0
412 -452 -131 0
452 -412 -131 0
447 -359 -133 0
359 -447 -133 0
360 -364 -135 0
364 -360 -135 0
367 -381 -137 0
381 -367 -137 0
485 -460 -139 0
460 -485 -139 0
478 -461 -141 0
461 -478 -141 0
440 -410 -143 0
410 -440 -143 0
402 -372 -145 0
372 -402 -145 0
370 -444 -147 0
444 -370 -147 0
465 -478 -149 0
478 -465 -149 0
416 -405 -151 0
405 -416 -151 0
473 -406 -153 0
406 -473 -153 0
397 -372 -155 0
372 -397 -155 0
410 -358 -157 0
358 -410 -157 0
392 -483 -159 0
483 -392 -159 0
389 -424 -161 0
424 -389 -161 0
399 -409 -163 0
409 -399 -163 0
469 -416 -165 0
416 -469 -165 0
386 -381 -167 0
381 -386 -167 0
488 -494 -169 0
494 -488 -169 0
476 -375 -171 0
375 -476 -171 0
386 -381 -173 0
381 -386 -173 0
429 -493 -175 0
493 -429 -175 0
392 -426 -177 0
426 -392 -177 0
467 -376 -179 0
376 -467 -179 0
361 -372 -181 0
372 -361 -181 0
484 -403 -183 0
403 -484 -183 0
451 -462 -185 0
462 -451 -185 0
425 -372 -187 0
372 -425 -187 0
368 -395 -189 0
395 -368 -189 0
411 -382 -191 0
382 -411 -191 0
459 -369 -193 0
369 -459 -193 0
453 -477 -195 0
477 -453 -195 0
386 -472 -197 0
472 -386 -197 0
419 -481 -199 0
481 -419 -199 0
396 -486 -201 0
486 -396 -201 0
377 -371 -203 0
371 -377 -203 0
461 -457 -205 0
457 -461 -205 0
436 -412 -207 0
412 -436 -207 0
458 -494 -209 0
494 -458 -209 0
434 -448 -211 0
448 -434 -211 0
385 -373 -213 0
373 -385 -213 0
398 -491 -215 0
491 -398 -215 0
405 -471 -217 0
471 -405 -217 0
422 -358 -219 0
358 -422 -219 0
356 -369 -221 0
369 -356 -221 0
421 -456 -223 0
456 -421 -223 0
383 -399 -225 0
399 -383 -225 0
457 -476 -227 0
476 -457 -227 0
444 -443 -229 0
443 -444 -229 0
395 -371 -231 0
371 -395 -231 0
438 -437 -233 0
437 -438 -233 0
476 -466 -235 0
466 -476 -235 0
476 -425 -237 0
425 -476 -237 0
463 -450 -239 0
450 -463 -239 0
402 -376 -241 0
376 -402 -241 0
366 -409 -243 0
409 -366 -243 0
482 -475 -245 0
475 -482 -245 0
438 -408 -247 0
408 -438 -247 0
437 -401 -249 0
401 -437 -249 0
490 -372 -251 0
372 -490 -251 0
430 -486 -253 0
486 -430 -253 0
440 -470 -255 0
470 -440 -255 0
436 -399 -257 0
399 -436 -257 0
415 -439 -259 0
439 -415 -259 0
402 -362 -261 0
362 -402 -261 0
380 -469 -263 0
469 -380 -263 0
451 -469 -265 0
469 -451 -265 0
448 -369 -267 0
369 -448 -267 0
484 -422 -269 0
422 -484 -269 0
418 -449 -271 0
449 -418 -271 0
478 -456 -273 0
456 -478 -273 0
407 -372 -275 0
372 -407 -275 0
382 -475 -277 0
475 -382 -277 0
493 -395 -279 0
395 -493 -279 0
399 -409 -281 0
409 -399 -281 0
465 -478 -283 0
478 -465 -283 0
431 -442 -285 0
442 -431 -285 0
456 -461 -287 0
461 -456 -287 0
478 -398 -289 0
398 -478 -289 0
388 -414 -291 0
414 -388 -291 0
386 -486 -293 0
486 -386 -293 0
405 -449 -295 0
449 -405 -295 0
457 -421 -297 0
421 -457 -297 0
386 -372 -299 0
372 -386 -299 0
390 -358 -301 0
358 -390 -301 0
386 -381 -303 0
381 -386 -303 0
441 -485 -305 0
485 -441 -305 0
384 -410 -307 0
410 -384 -307 0
409 -411 -309 0
411 -409 -309 0
400 -455 -311 0
455 -400 -311 0
471 -364 -313 0
364 -471 -313 0
383 -428 -315 0
428 -383 -315 0
425 -406 -317 0
406 -425 -317 0
378 -355 -319 0
355 -378 -319 0
479 -433 -321 0
433 -479 -321 0
403 -374 -323 0
374 -403 -323 0
432 -355 -325 0
355 -432 -325 0
454 -384 -327 0
384 -454 -327 0
367 -381 -329 0
381 -367 -329 0
363 -442 -331 0
442 -363 -331 0
439 -434 -333 0
434 -439 -333 0
397 -480 -335 0
480 -397 -335 0
479 -424 -337 0
424 -479 -337 0
391 -366 -339 0
366 -391 -339 0
487 -372 -341 0
372 -487 -341 0
494 -399 -343 0
399 -494 -343 0
460 -485 -345 0
485 -460 -345 0
452 -485 -347 0
485 -452 -347 0
460 -485 -349 0
485 -460 -349 0
413 -487 -351 0
487 -413 -351 0
445 -489 -353 0
489 -445 -353 0

